
List of user-set options:

                                    Name   Value                used
                         derivative_test = first-order           yes
                        file_print_level = 5                     yes
                   hessian_approximation = limited-memory        yes
                                  hsllib = /home/grant/packages/ThirdParty-HSL/.libs/libcoinhsl.so  yes
                           linear_solver = ma97                  yes
                                max_iter = 100                   yes
                             output_file = IPOPT.out             yes
                             print_level = 0                     yes
                      print_user_options = yes                   yes
                                      sb = yes                   yes
This is Ipopt version 3.14.7, running with linear solver ma97.

Starting derivative checker for first derivatives.

* grad_f[          3] =  7.5353057127358625e-06    ~  7.6132744198647530e-06  [ 7.797e-04]

Derivative checker detected 1 error(s).

Number of nonzeros in equality constraint Jacobian...:        0
Number of nonzeros in inequality constraint Jacobian.:        6
Number of nonzeros in Lagrangian Hessian.............:        0

Total number of variables............................:        6
                     variables with only lower bounds:        0
                variables with lower and upper bounds:        6
                     variables with only upper bounds:        0
Total number of equality constraints.................:        0
Total number of inequality constraints...............:        1
        inequality constraints with only lower bounds:        0
   inequality constraints with lower and upper bounds:        0
        inequality constraints with only upper bounds:        0

iter    objective    inf_pr   inf_du lg(mu)  ||d||  lg(rg) alpha_du alpha_pr  ls
   0  1.2843104e+01 0.00e+00 6.04e+00   0.0 0.00e+00    -  0.00e+00 0.00e+00   0
   1  4.4419137e-01 0.00e+00 1.35e+00  -5.6 3.35e+00    -  4.23e-01 7.38e-01f  1
   2  3.6482952e-01 0.00e+00 3.50e-01  -1.1 1.30e-01    -  9.93e-01 1.00e+00f  1
   3  2.8238651e-01 0.00e+00 2.99e-01  -2.6 1.48e-01    -  9.99e-01 1.00e+00f  1
   4  1.9552023e-01 0.00e+00 3.83e-01  -2.5 7.39e-01    -  1.00e+00 2.50e-01f  3
   5  1.2983862e-01 0.00e+00 2.99e-01  -3.6 2.15e-01    -  1.00e+00 1.00e+00f  1
   6  1.6437472e-02 0.00e+00 3.52e-01  -3.3 1.38e+01    -  1.00e+00 3.87e-02f  3
   7  1.8786523e-04 0.00e+00 1.01e-01  -3.7 3.90e-01    -  1.00e+00 1.00e+00f  1
   8  7.6087913e-06 0.00e+00 2.27e-01  -3.9 1.57e-01    -  1.00e+00 2.50e-01f  3
   9  0.0000000e+00 0.00e+00 6.76e-06  -5.0 7.89e-02    -  1.00e+00 1.00e+00f  1
iter    objective    inf_pr   inf_du lg(mu)  ||d||  lg(rg) alpha_du alpha_pr  ls
  10  0.0000000e+00 0.00e+00 1.65e-10 -11.0 5.17e-11    -  1.00e+00 1.00e+00f  1

Number of Iterations....: 10

                                   (scaled)                 (unscaled)
Objective...............:   0.0000000000000000e+00    0.0000000000000000e+00
Dual infeasibility......:   1.6512123004400130e-10    1.6512123004400130e-10
Constraint violation....:   0.0000000000000000e+00    0.0000000000000000e+00
Variable bound violation:   0.0000000000000000e+00    0.0000000000000000e+00
Complementarity.........:   1.8640839489647539e-10    1.8640839489647539e-10
Overall NLP error.......:   1.8640839489647539e-10    1.8640839489647539e-10


Number of objective function evaluations             = 29
Number of objective gradient evaluations             = 11
Number of equality constraint evaluations            = 0
Number of inequality constraint evaluations          = 29
Number of equality constraint Jacobian evaluations   = 0
Number of inequality constraint Jacobian evaluations = 11
Number of Lagrangian Hessian evaluations             = 0
Total seconds in IPOPT                               = 0.030

EXIT: Optimal Solution Found.
